\ Model timtab1
\ LP format - for model browsing. Use MPS format to capture full model detail.
Minimize
  1001 x1 + 1000 x4 + 1001 x5 + 1000 x7 + 1001 x8 + 1387 x12 + 245 x14
   + 437 x15 + 500 x16 + 500 x17 + 725 x18 + 2002 x22 + 291 x25 + 331 x27
   + 481 x28 + 341 x29 + 650 x30 + 520 x31 + 1000 x32 + 250 x39 + 1001 x40
   + 227 x41 + 338 x42 + 954 x44 + 2002 x47 + 333.33333333 x50
   + 333.33333333 x51 + 666.66666667 x52 + 666.66666667 x53
   + 333.33333333 x54 + 333.33333333 x55 + 1001 x57 + 1001 x59 + 823 x62
   + 440 x63 + 1000 x64 + 1000 x65 + 371 x66 + 1001 x67 + 1001 x68
   + 1001 x71 + 231 x72 + 470 x75 + 520 x76 + 235 x77 + 295 x78 + 650 x79
   + 500 x80 + 500 x81 + 474 x85 + 909 x86 + 283 x87 + 384 x88 + 1001 x89
   + 1100 x91 + 490 x92 + 464 x93 + 1000 x94 + 1000 x103 + 287 x104
   + 1001 x107 + 1001 x108 + 520 x110 + 1100 x111 + 500 x112 + 500 x113
   + 1001 x115 + 337 x118 + 312 x119 + 1001 x123 + 500 x124 + 500 x126
   + 500 x127 + 1001 x129 + 1001 x130 + 500 x131 + 1001 x132 + 1001 x134
   + 366 x136 + 489 x137 + 1000 x138 + 906 x140 + 1001 x141 + 1001 x142
   + 1000 x144 + 1001 x145 + 1001 x146 + 232 x147 + 293 x152 + 703 x153
   + 1001 x154 + 499 x155 + 1001 x157 + 580 x158 + 247 x159 + 600 x162
   + 520 x163 + 1001 x165 + 1001 x167 + 1001 x170 + 1001 x172 + 476 x173
   + 1000 x174 + 500 x176 + 500 x177 + 500 x179 + 261 x180 + 1001 x184
   + 1000 x187 + 1001 x188 + 500 x190 + 1001 x191 + 1001 x192 + 540 x193
   + 431 x194 + 1001 x196 + 328 x197 + 520 x198 + 600 x203
   + 333.33333333 x206 + 1001 x207 + 2002 x212 + 1001 x213 + 1001 x214
   + 500 x216 + 500 x217 + 719 x222 + 1001 x226
Subject To
 c1: x1 + x4 + x5 + x14 + x22 + x34 - x159 + x160 - 60 x227 = -35
 c2: - x2 + x3 - 60 x228 = -1
 c3: - x2 - x4 - x6 + x7 - 60 x229 = -115
 c4: - x5 + x6 + x8 + x12 - x14 - 60 x230 = -24
 c5: x9 + x12 - x14 - 60 x231 = -31
 c6: x10 - x12 - x22 - x34 + x192 - x193 - 60 x232 = -91
 c7: x11 - x12 - x22 - x34 + x192 - x194 - 60 x233 = -80
 c8: x13 + x22 - x29 - 60 x234 = 0
 c9: x17 + x22 + x32 + x212 - 60 x235 = 2
 c10: - x15 + x18 - 60 x236 = -30
 c11: - x19 + x20 - 60 x237 = -30
 c12: x21 - x22 + x29 - 60 x238 = 22
 c13: x24 + x37 - 60 x239 = 24
 c14: - x23 + x25 - 60 x240 = -1
 c15: - x23 + x26 - 60 x241 = -30
 c16: - x23 + x27 - 60 x242 = -31
 c17: - x28 + x30 - 60 x243 = -30
 c18: - x29 + x31 - 60 x244 = -30
 c19: - x34 + x36 - 60 x245 = -30
 c20: - x33 + x38 - 60 x246 = -30
 c21: - x33 + x39 - 60 x247 = -31
 c22: - x41 + x42 - 60 x248 = -1
 c23: - x41 + x43 - 60 x249 = -30
 c24: - x41 + x44 - 60 x250 = -31
 c25: x32 - x41 + x45 - x54 - x62 - 60 x251 = -122
 c26: x32 - x41 + x46 - x54 - x62 - 60 x252 = -152
 c27: x34 - x41 + x47 - 60 x253 = 0
 c28: x40 - x41 + x48 - 60 x254 = 1
 c29: x40 - x41 + x49 - 60 x255 = -29
 c30: - x32 + x41 + x50 - x56 + x62 - 60 x256 = -59
 c31: - x32 + x41 + x51 - x56 + x62 - 60 x257 = -89
 c32: - x32 + x41 + x52 + x62 - 60 x258 = -2.84217e-14
 c33: - x32 + x41 + x53 + x62 - 60 x259 = -30
 c34: - x54 + x55 - 60 x260 = -30
 c35: x57 - x62 + x205 - 60 x261 = 0
 c36: - x56 + x58 - 60 x262 = -30
 c37: x59 - x62 + x202 - 60 x263 = -30
 c38: x60 - x62 + x67 - 60 x264 = 1
 c39: x61 - x62 + x67 - 60 x265 = -29
 c40: - x62 + x63 - 60 x266 = -30
 c41: - x32 + x40 + x64 + x67 - 60 x267 = -14
 c42: - x32 + x40 + x65 + x67 - 60 x268 = -44
 c43: x66 - x67 + x202 - 60 x269 = -6
 c44: - x67 + x68 + x74 - 60 x270 = 27
 c45: x69 + x74 - x205 - 60 x271 = -3
 c46: x70 + x74 - x202 - 60 x272 = -3
 c47: x32 - x34 + x71 - x74 + x174 - x175 + x192 - 60 x273 = -156
 c48: x72 - x74 - x77 + x205 - 60 x274 = -60
 c49: x32 - x33 + x73 - x74 - 60 x275 = -68
 c50: x32 - x34 - x74 + x75 + x192 - x193 - 60 x276 = -134
 c51: - x74 + x76 - x77 + x205 - 60 x277 = -59
 c52: - x77 + x78 - x202 + x205 - 60 x278 = -60
 c53: - x23 - x32 - x77 + x79 + x205 - 60 x279 = -167
 c54: - x32 + x34 - x77 + x80 - x151 + x205 - 60 x280 = -145
 c55: - x32 + x37 - x77 + x81 + x205 - 60 x281 = -108
 c56: - x77 + x82 + x135 + x205 - 60 x282 = -45
 c57: - x77 + x83 + x109 + x205 - 60 x283 = -45
 c58: - x77 + x84 - x97 + x205 - 60 x284 = -99
 c59: - x77 + x85 - 60 x285 = -59
 c60: - x77 + x86 - x202 + x205 - 60 x286 = -59
 c61: - x32 + x33 - x77 + x87 + x205 - 60 x287 = -116
 c62: x32 - x34 + x77 + x88 + x192 - x193 - x205 - 60 x288 = -138
 c63: x32 - x34 + x77 + x89 + x192 - x194 - x205 - 60 x289 = -136
 c64: - x23 - x32 + x90 + x97 - 60 x290 = -73
 c65: - x32 + x34 + x91 + x97 - 60 x291 = -27
 c66: - x32 + x34 + x92 + x97 - 60 x292 = -57
 c67: - x32 + x35 + x93 + x97 - 60 x293 = -57
 c68: - x32 + x33 + x94 + x97 - 60 x294 = -56
 c69: - x32 + x34 + x96 + x97 - x151 - 60 x295 = -87
 c70: x32 - x37 - x97 + x98 - 60 x296 = -78
 c71: x32 - x34 - x97 + x99 - 60 x297 = -98
 c72: x32 - x34 - x97 + x100 - 60 x298 = -68
 c73: x32 - x33 - x97 + x101 - 60 x299 = -49
 c74: x32 - x35 - x97 + x102 - 60 x300 = -68
 c75: x32 - x33 - x97 + x103 - 60 x301 = -86
 c76: - x97 + x104 - 60 x302 = -30
 c77: - x97 + x105 - x135 - 60 x303 = -57
 c78: - x97 + x106 - x109 - 60 x304 = -57
 c79: - x19 - x22 - x32 + x95 + x97 + x107 - 60 x305 = -99
 c80: x54 + x62 - x95 - x97 + x108 - 60 x306 = -88
 c81: - x109 + x110 - 60 x307 = -1
 c82: - x109 + x111 - 60 x308 = -30
 c83: - x32 + x34 - x109 + x112 - x151 - 60 x309 = -163
 c84: - x32 + x37 - x109 + x113 - 60 x310 = -66
 c85: x109 + x114 - 60 x311 = 24
 c86: x109 + x115 - x119 - x212 - 60 x312 = 0
 c87: x32 - x33 + x109 + x116 - 60 x313 = -54
 c88: x109 + x117 - x135 - 60 x314 = -3
 c89: x16 + x22 + x32 + x119 + x120 + x212 - 60 x315 = 55
 c90: x119 + x121 - 60 x316 = 23
 c91: x29 + x32 + x119 + x122 + x212 - 60 x317 = 39
 c92: x15 + x22 + x32 + x119 + x123 + x124 + x212 - 60 x318 = 29
 c93: - x124 + x125 + x131 - 60 x319 = -3
 c94: - x124 + x126 - x128 - 60 x320 = -63
 c95: x127 - x128 - x131 - 60 x321 = -57
 c96: - x15 - x22 + x29 + x128 + x129 - 60 x322 = -6
 c97: x15 + x22 + x34 + x130 + x131 - x192 + x194 - 60 x323 = 54
 c98: x56 - x62 + x118 - x119 + x132 - x212 - 60 x324 = -101
 c99: - x32 + x33 + x118 - x119 + x133 - x212 - 60 x325 = -102
 c100: x16 + x22 + x32 - x118 + x119 + x134 + x212 - 60 x326 = -58
 c101: - x135 + x136 - 60 x327 = -1
 c102: - x32 + x34 - x135 + x137 - x151 - 60 x328 = -138
 c103: - x23 - x32 - x135 + x138 - 60 x329 = -150
 c104: - x32 + x33 - x135 + x139 - 60 x330 = -72
 c105: - x135 + x140 - 60 x331 = -30
 c106: x28 + x32 + x135 + x141 + x143 - 60 x332 = 2
 c107: x142 - x143 + x144 + x145 - 60 x333 = -22
 c108: x146 + x151 - x197 - 60 x334 = -1
 c109: x147 + x151 - x159 - 60 x335 = -3
 c110: x23 + x34 + x148 - x151 - 60 x336 = -16
 c111: x34 - x37 + x149 - x151 - 60 x337 = -100
 c112: - x33 + x34 + x150 - x151 - 60 x338 = -71
 c113: x34 - x35 - x151 + x152 - 60 x339 = -90
 c114: - x151 + x153 - 60 x340 = -30
 c115: - x14 - x22 - x34 + x154 + x159 - 60 x341 = -74
 c116: - x15 - x22 - x34 + x155 + x159 - 60 x342 = -75
 c117: x156 - x159 + x197 - 60 x343 = -1
 c118: x157 - x159 + x169 + x174 + x192 - 60 x344 = -22
 c119: x158 - x159 + x174 + x192 - 60 x345 = -53
 c120: - x159 + x162 - 60 x346 = -30
 c121: x34 - x35 - x159 + x163 - 60 x347 = -90
 c122: - x159 + x164 + x197 - 60 x348 = -15
 c123: x32 - x34 + x159 - x161 + x165 + x212 - 60 x349 = -75
 c124: x159 - x161 + x166 - x197 - 60 x350 = -110
 c125: x2 + x4 + x5 + x14 + x22 + x34 - x159 + x161 + x167 - 60 x351 = -31
 c126: - x160 + x161 + x168 - 60 x352 = -3
 c127: x32 - x34 + x170 + x174 + x192 - x205 - 60 x353 = -97
 c128: - x169 + x171 - 60 x354 = -30
 c129: x32 - x34 + x172 + x174 + x192 - x202 - 60 x355 = -67
 c130: x173 + x174 + x192 - x197 - 60 x356 = -53
 c131: - x174 + x176 + x191 - x192 - 60 x357 = -45
 c132: - x174 + x177 - x180 - 60 x358 = -72
 c133: - x175 + x178 - 60 x359 = -30
 c134: - x174 + x175 + x179 - x180 - 60 x360 = -73
 c135: x180 + x181 - x186 - 60 x361 = -3
 c136: x180 + x182 + x191 - x192 - 60 x362 = 26
 c137: x180 + x183 - 60 x363 = 56
 c138: x34 - x35 + x180 + x184 - x192 - 60 x364 = -33
 c139: x185 - x186 - x191 + x192 - 60 x365 = -30
 c140: - x169 - x174 - x186 + x187 - 60 x366 = -133
 c141: x186 + x188 - x193 - 60 x367 = 0
 c142: x189 + x191 - x192 - 60 x368 = 29
 c143: - x174 + x175 + x190 + x191 - x192 - 60 x369 = -46
 c144: - x169 - x175 + x195 - 60 x370 = -59
 c145: - x15 - x22 - x34 + x196 + x197 - 60 x371 = -82
 c146: x34 - x35 - x197 + x198 - 60 x372 = -90
 c147: x159 - x160 - x197 + x199 - 60 x373 = -110
 c148: x200 + x202 - x205 - 60 x374 = -3
 c149: x32 - x33 + x201 - x202 - 60 x375 = -68
 c150: x32 - x34 + x192 - x193 - x202 + x203 - 60 x376 = -134
 c151: x32 - x33 + x204 - x205 - 60 x377 = -68
 c152: - x54 - x56 + x206 - 60 x378 = -59
 c153: x35 - x40 + x207 - 60 x379 = 27
 c154: - x34 + x35 + x208 - 60 x380 = -33
 c155: - x34 + x35 + x209 - 60 x381 = -3
 c156: - x23 - x33 + x210 - 60 x382 = -58
 c157: - x33 + x37 + x211 - 60 x383 = -34
 c158: x23 - x28 + x213 - 60 x384 = 0
 c159: - x29 - x37 + x214 - 60 x385 = -84
 c160: - x23 - x37 + x215 - 60 x386 = -87
 c161: - x16 + x19 + x216 - 60 x387 = -3
 c162: x19 + x22 + x32 + x212 + x217 - 60 x388 = 59
 c163: - x19 - x22 + x29 + x218 - 60 x389 = -5
 c164: x16 + x22 + x32 + x212 + x219 - 60 x390 = 29
 c165: x16 + x22 + x32 + x212 + x220 - 60 x391 = 59
 c166: - x14 - x22 - x34 + x192 - x194 + x221 - 60 x392 = -168
 c167: x193 - x194 + x222 - 60 x393 = -50
 c168: - x193 + x194 + x223 - 60 x394 = -1
 c169: - x193 + x194 + x224 - 60 x395 = -16
 c170: - x14 - x22 - x34 + x192 - x193 + x225 - 60 x396 = -119
 c171: x159 - x160 - x192 + x193 + x226 - 60 x397 = -15
Bounds
 x1 <= 4
 x2 <= 54
 x3 <= 54
 x4 <= 59
 x5 <= 4
 x6 <= 54
 x7 <= 59
 x8 <= 4
 x9 <= 48
 x10 <= 58
 x11 <= 58
 x12 <= 4
 x13 <= 52
 x14 <= 59
 x15 <= 59
 x16 <= 59
 x17 <= 59
 x18 <= 59
 x19 <= 54
 x20 <= 54
 x21 <= 52
 x22 <= 4
 x23 <= 54
 x24 <= 54
 x25 <= 59
 x26 <= 54
 x27 <= 59
 x28 <= 59
 x29 <= 59
 x30 <= 59
 x31 <= 59
 x32 <= 59
 x33 <= 54
 x34 <= 51
 x35 <= 51
 x36 <= 51
 x37 <= 54
 x38 <= 54
 x39 <= 59
 x40 <= 6
 x41 <= 54
 x42 <= 54
 x43 <= 54
 x44 <= 54
 x45 <= 57
 x46 <= 57
 x47 <= 6
 x48 <= 54
 x49 <= 54
 x50 <= 59
 x51 <= 59
 x52 <= 59
 x53 <= 59
 x54 <= 59
 x55 <= 59
 x56 <= 58
 x57 <= 6
 x58 <= 58
 x59 <= 6
 x60 <= 54
 x61 <= 54
 x62 <= 54
 x63 <= 54
 x64 <= 59
 x65 <= 59
 x66 <= 59
 x67 <= 6
 x68 <= 6
 x69 <= 54
 x70 <= 54
 x71 <= 4
 x72 <= 59
 x73 <= 52
 x74 <= 51
 x75 <= 59
 x76 <= 54
 x77 <= 59
 x78 <= 59
 x79 <= 59
 x80 <= 59
 x81 <= 59
 x82 <= 54
 x83 <= 54
 x84 <= 54
 x85 <= 54
 x86 <= 54
 x87 <= 52
 x88 <= 59
 x89 <= 4
 x90 <= 53
 x91 <= 59
 x92 <= 59
 x93 <= 59
 x94 <= 59
 x95 <= 50
 x96 <= 52
 x97 <= 54
 x98 <= 53
 x99 <= 52
 x100 <= 52
 x101 <= 53
 x102 <= 52
 x103 <= 59
 x104 <= 54
 x105 <= 54
 x106 <= 54
 x107 <= 4
 x108 <= 5
 x109 <= 54
 x110 <= 59
 x111 <= 59
 x112 <= 59
 x113 <= 59
 x114 <= 54
 x115 <= 4
 x116 <= 54
 x117 <= 54
 x118 <= 59
 x119 <= 53
 x120 <= 53
 x121 <= 53
 x122 <= 56
 x123 <= 4
 x124 <= 59
 x125 <= 54
 x126 <= 39
 x127 <= 59
 x128 <= 54
 x129 <= 4
 x130 <= 4
 x131 <= 59
 x132 <= 5
 x133 <= 51
 x134 <= 4
 x135 <= 54
 x136 <= 59
 x137 <= 59
 x138 <= 59
 x139 <= 54
 x140 <= 54
 x141 <= 4
 x142 <= 4
 x143 <= 56
 x144 <= 59
 x145 <= 4
 x146 <= 4
 x147 <= 59
 x148 <= 54
 x149 <= 54
 x150 <= 54
 x151 <= 54
 x152 <= 54
 x153 <= 54
 x154 <= 4
 x155 <= 59
 x156 <= 58
 x157 <= 4
 x158 <= 59
 x159 <= 59
 x160 <= 58
 x161 <= 58
 x162 <= 59
 x163 <= 59
 x164 <= 52
 x165 <= 4
 x166 <= 58
 x167 <= 4
 x168 <= 49
 x169 <= 58
 x170 <= 4
 x171 <= 58
 x172 <= 4
 x173 <= 59
 x174 <= 59
 x175 <= 58
 x176 <= 59
 x177 <= 59
 x178 <= 58
 x179 <= 59
 x180 <= 59
 x181 <= 57
 x182 <= 58
 x183 <= 58
 x184 <= 4
 x185 <= 57
 x186 <= 57
 x187 <= 59
 x188 <= 4
 x189 <= 58
 x190 <= 59
 x191 <= 4
 x192 <= 4
 x193 <= 59
 x194 <= 59
 x195 <= 58
 x196 <= 4
 x197 <= 59
 x198 <= 59
 x199 <= 58
 x200 <= 54
 x201 <= 52
 x202 <= 51
 x203 <= 59
 x204 <= 52
 x205 <= 51
 x206 <= 59
 x207 <= 6
 x208 <= 54
 x209 <= 54
 x210 <= 53
 x211 <= 53
 x212 <= 4
 x213 <= 4
 x214 <= 4
 x215 <= 54
 x216 <= 59
 x217 <= 59
 x218 <= 52
 x219 <= 54
 x220 <= 54
 x221 <= 58
 x222 <= 59
 x223 <= 58
 x224 <= 52
 x225 <= 58
 x226 <= 4
 x227 <= 4
 x228 = 0
 x229 <= 2
 x230 <= 1
 x231 <= 1
 x232 <= 2
 x233 <= 2
 x234 = 0
 x235 <= 2
 x236 <= 1
 x237 <= 1
 x238 <= 1
 x239 <= 1
 x240 <= 1
 x241 <= 1
 x242 <= 1
 x243 <= 1
 x244 <= 1
 x245 <= 1
 x246 <= 1
 x247 <= 1
 x248 = 0
 x249 <= 1
 x250 <= 1
 x251 <= 3
 x252 <= 4
 x253 = 0
 x254 = 0
 x255 <= 1
 x256 <= 3
 x257 <= 4
 x258 <= 2
 x259 <= 3
 x260 <= 1
 x261 = 0
 x262 <= 1
 x263 <= 1
 x264 = 0
 x265 <= 1
 x266 <= 1
 x267 <= 1
 x268 <= 1
 x269 <= 1
 x270 = 0
 x271 <= 1
 x272 <= 1
 x273 <= 4
 x274 <= 2
 x275 <= 2
 x276 <= 4
 x277 <= 2
 x278 <= 2
 x279 <= 4
 x280 <= 5
 x281 <= 4
 x282 <= 3
 x283 <= 3
 x284 <= 3
 x285 <= 1
 x286 <= 2
 x287 <= 4
 x288 <= 5
 x289 <= 4
 x290 <= 3
 x291 <= 3
 x292 <= 3
 x293 <= 3
 x294 <= 3
 x295 <= 4
 x296 <= 3
 x297 <= 3
 x298 <= 2
 x299 <= 2
 x300 <= 2
 x301 <= 3
 x302 <= 1
 x303 <= 1
 x304 <= 1
 x305 <= 3
 x306 <= 3
 x307 <= 1
 x308 <= 1
 x309 <= 4
 x310 <= 2
 x311 <= 1
 x312 = 0
 x313 <= 3
 x314 <= 1
 x315 <= 2
 x316 <= 1
 x317 <= 3
 x318 <= 3
 x319 <= 1
 x320 <= 1
 x321 <= 1
 x322 <= 2
 x323 <= 3
 x324 <= 3
 x325 <= 4
 x326 <= 4
 x327 <= 1
 x328 <= 4
 x329 <= 3
 x330 <= 3
 x331 <= 1
 x332 <= 3
 x333 <= 1
 x334 = 0
 x335 <= 1
 x336 <= 2
 x337 <= 3
 x338 <= 2
 x339 <= 3
 x340 <= 1
 x341 <= 2
 x342 <= 3
 x343 <= 1
 x344 <= 2
 x345 <= 2
 x346 <= 1
 x347 <= 3
 x348 <= 2
 x349 <= 3
 x350 <= 3
 x351 <= 5
 x352 <= 1
 x353 <= 3
 x354 <= 1
 x355 <= 3
 x356 <= 2
 x357 <= 1
 x358 <= 2
 x359 <= 1
 x360 <= 3
 x361 <= 1
 x362 <= 1
 x363 <= 1
 x364 <= 2
 x365 <= 1
 x366 <= 3
 x367 <= 1
 x368 = 0
 x369 <= 2
 x370 <= 1
 x371 <= 2
 x372 <= 3
 x373 <= 3
 x374 <= 1
 x375 <= 2
 x376 <= 4
 x377 <= 2
 x378 <= 1
 x379 = 0
 x380 <= 2
 x381 <= 1
 x382 <= 1
 x383 <= 2
 x384 = 0
 x385 <= 1
 x386 <= 2
 x387 <= 1
 x388 <= 2
 x389 <= 1
 x390 <= 2
 x391 <= 2
 x392 <= 3
 x393 <= 2
 x394 <= 1
 x395 <= 2
 x396 <= 3
 x397 <= 2
Generals
 x227 x228 x229 x230 x231 x232 x233 x234 x235 x236 x237 x238 x239 x240 x241
 x242 x243 x244 x245 x246 x247 x248 x249 x250 x251 x252 x253 x254 x255 x256
 x257 x258 x259 x260 x261 x262 x263 x264 x265 x266 x267 x268 x269 x270 x271
 x272 x273 x274 x275 x276 x277 x278 x279 x280 x281 x282 x283 x284 x285 x286
 x287 x288 x289 x290 x291 x292 x293 x294 x295 x296 x297 x298 x299 x300 x301
 x302 x303 x304 x305 x306 x307 x308 x309 x310 x311 x312 x313 x314 x315 x316
 x317 x318 x319 x320 x321 x322 x323 x324 x325 x326 x327 x328 x329 x330 x331
 x332 x333 x334 x335 x336 x337 x338 x339 x340 x341 x342 x343 x344 x345 x346
 x347 x348 x349 x350 x351 x352 x353 x354 x355 x356 x357 x358 x359 x360 x361
 x362 x363 x364 x365 x366 x367 x368 x369 x370 x371 x372 x373 x374 x375 x376
 x377 x378 x379 x380 x381 x382 x383 x384 x385 x386 x387 x388 x389 x390 x391
 x392 x393 x394 x395 x396 x397
End
